p ocr 14 20 59
1 15
1 16
1 17
1 18
1 19
1 20
1 22
1 29
1 30
1 31
2 25
3 21
3 26
3 27
3 28
3 33
4 15
4 16
4 17
4 18
4 19
4 20
4 22
4 25
4 29
4 30
4 31
5 25
6 27
6 33
6 34
7 24
7 25
8 15
8 16
8 17
8 18
8 19
8 20
8 22
8 29
8 30
8 31
9 21
9 26
9 28
9 33
10 23
11 16
11 17
11 25
11 31
12 25
13 23
14 21
14 26
14 27
14 28
14 33